
Gurobi 11.0.3 (linux64) logging started Sat Nov 23 07:52:37 2024

Set parameter LogFile to value "/home/yihong/Coding/OR_SUC/SUC_results_bigM100000_thread4/case24_ieee_rts_theta0.5_epsilon0.05_gurobi_seed440000_num_gen100_N_WDR150_load_scaling_factor1_proposed_T24quadra_cost.txt"
Set parameter TimeLimit to value 3600
Gurobi Optimizer version 11.0.3 build v11.0.3rc0 (linux64 - "Ubuntu 20.04.6 LTS")

CPU model: AMD EPYC 7532 32-Core Processor, instruction set [SSE2|AVX|AVX2]
Thread count: 64 physical cores, 128 logical processors, using up to 4 threads

Optimize a model with 61352 rows, 29911 columns and 1720734 nonzeros
Model fingerprint: 0x9ba3abc0
Model has 2400 quadratic constraints
Variable types: 27511 continuous, 2400 integer (2400 binary)
Coefficient statistics:
  Matrix range     [3e-04, 2e+03]
  QMatrix range    [2e-03, 8e-03]
  QLMatrix range   [3e-01, 6e+01]
  Objective range  [1e+00, 1e+00]
  Bounds range     [1e+00, 1e+00]
  RHS range        [1e+00, 9e+03]
Presolve removed 50555 rows and 12672 columns
Presolve time: 0.54s
Presolved: 10797 rows, 17239 columns, 65657 nonzeros
Presolved model has 2400 quadratic constraint(s)
Variable types: 14839 continuous, 2400 integer (2400 binary)

Root relaxation: objective 5.047030e+04, 8211 iterations, 0.20 seconds (0.27 work units)

    Nodes    |    Current Node    |     Objective Bounds      |     Work
 Expl Unexpl |  Obj  Depth IntInf | Incumbent    BestBd   Gap | It/Node Time

H    0     0                    638676.14717 50470.3031  92.1%     -    1s
*    0     0               0    638676.14717 50470.3031  92.1%     -    1s
     0     0 344483.471    0  781 638676.147 344483.471  46.1%     -    1s
     0     0 593915.878    0  460 638676.147 593915.878  7.01%     -    1s
     0     0 594134.280    0   92 638676.147 594134.280  6.97%     -    2s
     0     0 594134.404    0   67 638676.147 594134.404  6.97%     -    2s
     0     0 594138.323    0   67 638676.147 594138.323  6.97%     -    2s
     0     0 594138.323    0   67 638676.147 594138.323  6.97%     -    2s
     0     0 594138.411    0   67 638676.147 594138.411  6.97%     -    2s
     0     2 594138.411    0   67 638676.147 594138.411  6.97%     -    3s
    63    87 594210.615   14   38 638676.147 594163.426  6.97%  35.3    5s
H  334   305                    594425.45887 594168.440  0.04%  34.1    9s
*  334   305              47    594425.45887 594168.440  0.04%  34.1    9s

Cutting planes:
  Gomory: 33
  Lift-and-project: 21
  Implied bound: 255
  MIR: 30
  Flow cover: 161
  RLT: 371
  Relax-and-lift: 118

Explored 429 nodes (37877 simplex iterations) in 9.99 seconds (14.15 work units)
Thread count was 4 (of 128 available processors)

Solution count 3: 594425 594425 638676 

Optimal solution found (tolerance 1.00e-03)
Warning: max constraint violation (2.2905e-07) exceeds tolerance
Best objective 5.944254588677e+05, best bound 5.941721092760e+05, gap 0.0426%
